\ This file has been generated by DOcplex
\ ENCODING=ISO-8859-1
\Problem name: MCLP17_mul_c_4x5-2

Minimize
 obj: - 61 y_0 - 61 y_1 - 61 y_2 - 61 y_3 - 59 y_4 - 61 y_5 - 61 y_6 - 59 y_7
      - 61 y_8 - 61 y_9 - 61 y_10 - 61 y_11 - 61 y_12 - 61 y_13 - 61 y_14
      - 61 y_15 - 61 y_16 - 61 y_17 - 57 y_18 - 59 y_19 - 310 x_0 - 372 x_3
      - 434 x_12 - 372 x_16 - 310 x_19 + 62 c1a_0_int_slack_0
      + 62 c1a_1_int_slack_0 + 62 c1a_2_int_slack_0 + 62 c1a_3_int_slack_0
      + 62 c1a_4_int_slack_0 + 62 c1a_5_int_slack_0 + 62 c1a_7_int_slack_0
      + 62 c1a_8_int_slack_0 + 62 c1a_11_int_slack_0 + 62 c1a_11_int_slack_1
      + 62 c1a_12_int_slack_0 + 62 c1a_13_int_slack_0 + 62 c1a_14_int_slack_0
      + 62 c1a_15_int_slack_0 + 62 c1a_16_int_slack_0 + 62 c1a_17_int_slack_0
      + 62 c1a_17_int_slack_1 + 62 c1a_18_int_slack_0 + 62 c1a_19_int_slack_0 +
      [ 62 y_0^2 + 124 y_0*x_0 - 124 y_0*c1a_0_int_slack_0 + 62 y_1^2
      + 124 y_1*x_0 - 124 y_1*c1a_1_int_slack_0 + 62 y_2^2 + 124 y_2*x_3
      - 124 y_2*c1a_2_int_slack_0 + 62 y_3^2 + 124 y_3*x_3
      - 124 y_3*c1a_3_int_slack_0 + 62 y_4^2 + 124 y_4*x_3
      - 124 y_4*c1a_4_int_slack_0 + 62 y_5^2 + 124 y_5*x_0
      - 124 y_5*c1a_5_int_slack_0 + 62 y_6^2 + 62 y_7^2 + 124 y_7*x_12
      - 124 y_7*c1a_7_int_slack_0 + 62 y_8^2 + 124 y_8*x_3
      - 124 y_8*c1a_8_int_slack_0 + 62 y_9^2 + 62 y_10^2 + 62 y_11^2
      + 124 y_11*x_12 + 124 y_11*x_16 - 124 y_11*c1a_11_int_slack_0
      - 124 y_11*c1a_11_int_slack_1 + 62 y_12^2 + 124 y_12*x_12
      - 124 y_12*c1a_12_int_slack_0 + 62 y_13^2 + 124 y_13*x_12
      - 124 y_13*c1a_13_int_slack_0 + 62 y_14^2 + 124 y_14*x_19
      - 124 y_14*c1a_14_int_slack_0 + 62 y_15^2 + 124 y_15*x_16
      - 124 y_15*c1a_15_int_slack_0 + 62 y_16^2 + 124 y_16*x_16
      - 124 y_16*c1a_16_int_slack_0 + 62 y_17^2 + 124 y_17*x_12 + 124 y_17*x_16
      - 124 y_17*c1a_17_int_slack_0 - 124 y_17*c1a_17_int_slack_1 + 62 y_18^2
      + 124 y_18*x_19 - 124 y_18*c1a_18_int_slack_0 + 62 y_19^2 + 124 y_19*x_19
      - 124 y_19*c1a_19_int_slack_0 + 248 x_0^2 + 124 x_0*x_3 + 124 x_0*x_12
      + 124 x_0*x_16 + 124 x_0*x_19 - 124 x_0*c1a_0_int_slack_0
      - 124 x_0*c1a_1_int_slack_0 - 124 x_0*c1a_5_int_slack_0 + 310 x_3^2
      + 124 x_3*x_12 + 124 x_3*x_16 + 124 x_3*x_19 - 124 x_3*c1a_2_int_slack_0
      - 124 x_3*c1a_3_int_slack_0 - 124 x_3*c1a_4_int_slack_0
      - 124 x_3*c1a_8_int_slack_0 + 372 x_12^2 + 372 x_12*x_16 + 124 x_12*x_19
      - 124 x_12*c1a_7_int_slack_0 - 124 x_12*c1a_11_int_slack_0
      - 124 x_12*c1a_11_int_slack_1 - 124 x_12*c1a_12_int_slack_0
      - 124 x_12*c1a_13_int_slack_0 - 124 x_12*c1a_17_int_slack_0
      - 124 x_12*c1a_17_int_slack_1 + 310 x_16^2 + 124 x_16*x_19
      - 124 x_16*c1a_11_int_slack_0 - 124 x_16*c1a_11_int_slack_1
      - 124 x_16*c1a_15_int_slack_0 - 124 x_16*c1a_16_int_slack_0
      - 124 x_16*c1a_17_int_slack_0 - 124 x_16*c1a_17_int_slack_1 + 248 x_19^2
      - 124 x_19*c1a_14_int_slack_0 - 124 x_19*c1a_18_int_slack_0
      - 124 x_19*c1a_19_int_slack_0 + 62 c1a_0_int_slack_0^2
      + 62 c1a_1_int_slack_0^2 + 62 c1a_2_int_slack_0^2 + 62 c1a_3_int_slack_0^2
      + 62 c1a_4_int_slack_0^2 + 62 c1a_5_int_slack_0^2 + 62 c1a_7_int_slack_0^2
      + 62 c1a_8_int_slack_0^2 + 62 c1a_11_int_slack_0^2
      + 124 c1a_11_int_slack_0*c1a_11_int_slack_1 + 62 c1a_11_int_slack_1^2
      + 62 c1a_12_int_slack_0^2 + 62 c1a_13_int_slack_0^2
      + 62 c1a_14_int_slack_0^2 + 62 c1a_15_int_slack_0^2
      + 62 c1a_16_int_slack_0^2 + 62 c1a_17_int_slack_0^2
      + 124 c1a_17_int_slack_0*c1a_17_int_slack_1 + 62 c1a_17_int_slack_1^2
      + 62 c1a_18_int_slack_0^2 + 62 c1a_19_int_slack_0^2 ]/2 + 744
Subject To

Bounds
 0 <= y_0 <= 1
 0 <= y_1 <= 1
 0 <= y_2 <= 1
 0 <= y_3 <= 1
 0 <= y_4 <= 1
 0 <= y_5 <= 1
 0 <= y_6 <= 1
 0 <= y_7 <= 1
 0 <= y_8 <= 1
 0 <= y_9 <= 1
 0 <= y_10 <= 1
 0 <= y_11 <= 1
 0 <= y_12 <= 1
 0 <= y_13 <= 1
 0 <= y_14 <= 1
 0 <= y_15 <= 1
 0 <= y_16 <= 1
 0 <= y_17 <= 1
 0 <= y_18 <= 1
 0 <= y_19 <= 1
 0 <= x_0 <= 1
 0 <= x_3 <= 1
 0 <= x_12 <= 1
 0 <= x_16 <= 1
 0 <= x_19 <= 1
 0 <= c1a_0_int_slack_0 <= 1
 0 <= c1a_1_int_slack_0 <= 1
 0 <= c1a_2_int_slack_0 <= 1
 0 <= c1a_3_int_slack_0 <= 1
 0 <= c1a_4_int_slack_0 <= 1
 0 <= c1a_5_int_slack_0 <= 1
 0 <= c1a_7_int_slack_0 <= 1
 0 <= c1a_8_int_slack_0 <= 1
 0 <= c1a_11_int_slack_0 <= 1
 0 <= c1a_11_int_slack_1 <= 1
 0 <= c1a_12_int_slack_0 <= 1
 0 <= c1a_13_int_slack_0 <= 1
 0 <= c1a_14_int_slack_0 <= 1
 0 <= c1a_15_int_slack_0 <= 1
 0 <= c1a_16_int_slack_0 <= 1
 0 <= c1a_17_int_slack_0 <= 1
 0 <= c1a_17_int_slack_1 <= 1
 0 <= c1a_18_int_slack_0 <= 1
 0 <= c1a_19_int_slack_0 <= 1

Binaries
 y_0 y_1 y_2 y_3 y_4 y_5 y_6 y_7 y_8 y_9 y_10 y_11 y_12 y_13 y_14 y_15 y_16 y_17
 y_18 y_19 x_0 x_3 x_12 x_16 x_19 c1a_0_int_slack_0 c1a_1_int_slack_0
 c1a_2_int_slack_0 c1a_3_int_slack_0 c1a_4_int_slack_0 c1a_5_int_slack_0
 c1a_7_int_slack_0 c1a_8_int_slack_0 c1a_11_int_slack_0 c1a_11_int_slack_1
 c1a_12_int_slack_0 c1a_13_int_slack_0 c1a_14_int_slack_0 c1a_15_int_slack_0
 c1a_16_int_slack_0 c1a_17_int_slack_0 c1a_17_int_slack_1 c1a_18_int_slack_0
 c1a_19_int_slack_0
End
